(declare-datatypes () ((Nat (Z) (S (p Nat)))))
(declare-datatypes () ((list (nil) (cons (head Nat) (tail list)))))
(declare-fun null (list) Bool)
(declare-fun last (list) Nat)
(declare-fun butlast (list) list)
(declare-fun append (list list) list)
(assert (= (null nil) true))
(assert (forall ((y Nat) (z list)) (= (null (cons y z)) false)))
(assert (= (last nil) Z))
(assert (forall ((y Nat)) (= (last (cons y nil)) y)))
(assert
  (forall ((y Nat) (x2 Nat) (x3 list))
    (= (last (cons y (cons x2 x3))) (last (cons x2 x3)))))
(assert (= (butlast nil) nil))
(assert (forall ((y Nat)) (= (butlast (cons y nil)) nil)))
(assert
  (forall ((y Nat) (x2 Nat) (x3 list))
    (= (butlast (cons y (cons x2 x3)))
      (cons y (butlast (cons x2 x3))))))
(assert (forall ((y list)) (= (append nil y) y)))
(assert
  (forall ((y list) (z Nat) (xs list))
    (= (append (cons z xs) y) (cons z (append xs y)))))
(assert-not
  (forall ((xs list))
    (=> (not (null xs))
      (= (append (butlast xs) (cons (last xs) nil)) xs))))
(check-sat)
